n = 30;
costtab =
  [|1, 8, 30, -639,
   |1, 13, 30, -1485,
   |1, 23, 30, -443,
   |1, 29, 30, -937,
   |1, 1, 1, 0,
   |2, 9, 19, -1208,
   |2, 9, 26, -1203,
   |2, 19, 9, -1070,
   |2, 19, 26, -1066,
   |2, 26, 9, -684,
   |2, 26, 19, -685,
   |2, 30, 9, -592,
   |2, 30, 19, -594,
   |2, 30, 26, -579,
   |2, 2, 2, 0,
   |3, 9, 19, -576,
   |3, 9, 24, -568,
   |3, 19, 9, -922,
   |3, 19, 24, -905,
   |3, 24, 9, -608,
   |3, 24, 19, -599,
   |3, 3, 3, 0,
   |4, 20, 21, -804,
   |4, 21, 20, -883,
   |4, 4, 4, 0,
   |5, 10, 22, -1133,
   |5, 22, 10, -418,
   |5, 5, 5, 0,
   |6, 18, 25, -483,
   |6, 25, 18, -391,
   |6, 6, 6, 0,
   |7, 8, 13, -1382,
   |7, 13, 8, -679,
   |7, 7, 7, 0,
   |8, 7, 1, -1361,
   |8, 7, 13, -1388,
   |8, 7, 19, -1389,
   |8, 7, 23, -1364,
   |8, 13, 1, -1205,
   |8, 13, 7, -1223,
   |8, 13, 19, -1223,
   |8, 13, 23, -1202,
   |8, 19, 1, -588,
   |8, 19, 7, -611,
   |8, 19, 13, -609,
   |8, 19, 23, -591,
   |8, 23, 1, -302,
   |8, 23, 7, -278,
   |8, 23, 13, -281,
   |8, 23, 19, -284,
   |8, 8, 8, 0,
   |9, 2, 3, -1166,
   |9, 2, 19, -1202,
   |9, 2, 28, -1183,
   |9, 3, 2, -534,
   |9, 3, 19, -555,
   |9, 3, 28, -572,
   |9, 19, 2, -558,
   |9, 19, 3, -542,
   |9, 19, 28, -558,
   |9, 28, 2, -869,
   |9, 28, 3, -889,
   |9, 28, 19, -888,
   |9, 9, 9, 0,
   |10, 5, 16, -1148,
   |10, 5, 20, -1143,
   |10, 16, 5, -536,
   |10, 16, 20, -517,
   |10, 20, 5, -954,
   |10, 20, 16, -940,
   |10, 10, 10, 0,
   |11, 16, 17, -855,
   |11, 16, 21, -857,
   |11, 17, 16, -1295,
   |11, 17, 21, -1287,
   |11, 21, 16, -867,
   |11, 21, 17, -856,
   |11, 11, 11, 0,
   |12, 17, 27, -471,
   |12, 27, 17, -737,
   |12, 12, 12, 0,
   |13, 7, 1, -665,
   |13, 7, 8, -672,
   |13, 7, 19, -677,
   |13, 8, 1, -1224,
   |13, 8, 7, -1210,
   |13, 8, 19, -1224,
   |13, 19, 1, -809,
   |13, 19, 7, -803,
   |13, 19, 8, -811,
   |13, 13, 13, 0,
   |14, 14, 14, 0,
   |15, 19, 24, -691,
   |15, 24, 19, -1327,
   |15, 30, 19, -1456,
   |15, 30, 24, -1448,
   |15, 15, 15, 0,
   |16, 10, 11, -531,
   |16, 10, 22, -520,
   |16, 11, 10, -852,
   |16, 11, 22, -855,
   |16, 22, 10, -1044,
   |16, 22, 11, -1058,
   |16, 16, 16, 0,
   |17, 11, 12, -1292,
   |17, 12, 11, -495,
   |17, 17, 17, 0,
   |18, 6, 26, -491,
   |18, 26, 6, -912,
   |18, 18, 18, 0,
   |19, 2, 3, -1045,
   |19, 2, 8, -1054,
   |19, 2, 9, -1056,
   |19, 2, 13, -1070,
   |19, 2, 15, -1041,
   |19, 2, 26, -1068,
   |19, 3, 2, -897,
   |19, 3, 8, -895,
   |19, 3, 9, -922,
   |19, 3, 13, -906,
   |19, 3, 15, -911,
   |19, 3, 26, -901,
   |19, 8, 2, -594,
   |19, 8, 3, -582,
   |19, 8, 9, -578,
   |19, 8, 13, -584,
   |19, 8, 15, -607,
   |19, 8, 26, -588,
   |19, 9, 2, -550,
   |19, 9, 3, -563,
   |19, 9, 8, -532,
   |19, 9, 13, -556,
   |19, 9, 15, -547,
   |19, 9, 26, -548,
   |19, 13, 2, -811,
   |19, 13, 3, -794,
   |19, 13, 8, -785,
   |19, 13, 9, -803,
   |19, 13, 15, -775,
   |19, 13, 26, -810,
   |19, 15, 2, -668,
   |19, 15, 3, -685,
   |19, 15, 8, -694,
   |19, 15, 9, -680,
   |19, 15, 13, -661,
   |19, 15, 26, -656,
   |19, 26, 2, -840,
   |19, 26, 3, -821,
   |19, 26, 8, -820,
   |19, 26, 9, -827,
   |19, 26, 13, -841,
   |19, 26, 15, -801,
   |19, 19, 19, 0,
   |20, 4, 10, -816,
   |20, 10, 4, -956,
   |20, 20, 20, 0,
   |21, 4, 11, -895,
   |21, 11, 4, -865,
   |21, 21, 21, 0,
   |22, 5, 16, -431,
   |22, 5, 27, -431,
   |22, 16, 5, -1058,
   |22, 16, 27, -1061,
   |22, 27, 5, -1083,
   |22, 27, 16, -1086,
   |22, 22, 22, 0,
   |23, 8, 1, -274,
   |23, 23, 23, 0,
   |24, 3, 15, -613,
   |24, 3, 25, -610,
   |24, 3, 28, -616,
   |24, 15, 3, -1329,
   |24, 15, 25, -1313,
   |24, 15, 28, -1333,
   |24, 25, 3, -1301,
   |24, 25, 15, -1288,
   |24, 25, 28, -1293,
   |24, 28, 3, -1181,
   |24, 28, 15, -1181,
   |24, 28, 25, -1167,
   |24, 24, 24, 0,
   |25, 6, 24, -415,
   |25, 24, 6, -1300,
   |25, 25, 25, 0,
   |26, 2, 18, -672,
   |26, 2, 19, -675,
   |26, 18, 2, -919,
   |26, 18, 19, -929,
   |26, 19, 2, -829,
   |26, 19, 18, -836,
   |26, 30, 2, -1125,
   |26, 30, 18, -1107,
   |26, 30, 19, -1117,
   |26, 26, 26, 0,
   |27, 12, 22, -770,
   |27, 22, 12, -1088,
   |27, 27, 27, 0,
   |28, 9, 24, -893,
   |28, 24, 9, -1180,
   |28, 28, 28, 0,
   |29, 30, 1, -914,
   |29, 29, 29, 0,
   |];

